&CONTROL
  calculation = 'scf'
  outdir = './'
  prefix = 'bn'
  pseudo_dir = './'
  wf_collect = .true.
/
&SYSTEM
  ecutwfc =   ??? ! To be determined
  ibrav = 0
  nat = 8
  ntyp = 2
  nbnd = 32
  nosym = .true.
/
&ELECTRONS
/
ATOMIC_SPECIES
B      10.811 B.pbesol-n-kjpaw_psl.1.0.0.UPF
N      14.0067 N.pbesol-n-kjpaw_psl.1.0.0.UPF
ATOMIC_POSITIONS crystal
N            0.0000000000       0.0000000000       0.0000000000
N            0.0000000000       0.5000000000       0.5000000000
N            0.5000000000       0.0000000000       0.5000000000
N            0.5000000000       0.5000000000       0.0000000000
B            0.7500000000       0.7500000000       0.2500000000
B            0.7500000000       0.2500000000       0.7500000000
B            0.2500000000       0.7500000000       0.7500000000
B            0.2500000000       0.2500000000       0.2500000000
K_POINTS automatic
??? ??? ??? 0 0 0 ! To be determined
CELL_PARAMETERS angstrom
      3.6160000000       0.0000000000       0.0000000000
      0.0000000000       3.6160000000       0.0000000000
      0.0000000000       0.0000000000       3.6160000000

